1 111 220 220 0
2 260 220 0 1
3 14 0 50 1
4 5 240 200 0
5 292 180 0 1
6 79 0 0 1
7 267 0 0 1
8 111 0 0 0
9 280 220 0 1
10 64 0 0 1
11 64 230 0 0
12 100 200 0 1
13 138 0 170 1
14 182 0 0 1
15 86 0 0 1
16 16 0 80 1
17 87 0 0 0
18 13 240 0 0
19 38 160 0 0
20 79 150 0 1
21 123 240 240 0
22 236 240 210 0
23 121 0 0 0
24 175 0 240 1
25 5 0 180 0
26 193 90 150 0
27 267 0 220 0
28 121 0 260 0
29 90 0 220 1
30 38 300 0 1
31 260 0 0 0
32 239 140 150 0
33 84 0 280 1
34 100 0 0 0
35 200 0 130 1
36 35 210 0 1
37 106 0 0 0
38 106 190 0 1
39 264 0 0 1
40 167 0 0 0
41 38 0 0 0
42 177 0 0 0
43 151 0 150 0
44 122 0 200 1
45 80 230 0 0
46 123 0 240 0
47 79 290 140 0
48 79 150 110 1
49 284 0 200 1
50 5 0 0 1
51 100 0 190 0
52 16 210 100 1
53 122 0 0 1
54 55 0 180 1
55 2 230 240 1
56 113 180 0 1
57 175 240 240 0
58 2 0 0 0
59 215 0 0 1
60 116 230 210 0
61 294 180 0 1
62 49 0 180 1
63 45 190 200 0
64 79 290 0 0
65 243 0 0 0
66 87 190 0 1
67 117 230 240 1
68 193 190 0 1
69 86 220 0 0
70 86 0 230 1
71 236 0 0 0
72 90 240 0 0
73 175 240 0 0
74 87 0 230 0
75 48 0 0 0
76 116 0 0 0
77 16 110 0 0
78 64 0 310 1
79 2 0 240 0
80 14 0 0 0
81 84 140 0 1
82 5 240 0 0
83 16 0 0 0
84 259 0 340 1
85 204 0 0 0
86 87 210 230 0
87 48 200 0 1
88 84 160 310 0
89 45 200 0 1
90 239 150 0 0
91 111 0 200 1
92 113 0 0 1
93 73 0 190 1
94 45 0 200 0
95 195 220 240 1
96 14 120 0 1
97 111 220 0 0
98 239 0 300 1
99 268 170 0 1
100 240 250 0 0
101 16 110 100 1
102 121 260 130 1
103 292 0 0 1
104 292 0 70 0
105 112 0 0 1
106 121 250 0 0
107 294 200 210 0
108 243 0 240 0
109 294 0 0 1
110 35 0 0 1
111 193 0 150 0
112 44 0 0 1
113 55 210 0 1
114 292 240 0 1
115 138 0 0 0
116 48 220 240 1
117 44 110 130 1
118 284 0 0 1
119 193 270 0 0
120 268 0 200 0
121 294 0 210 0
122 84 160 160 1
123 107 0 0 0
124 195 220 0 0
125 122 230 0 0
126 44 0 130 0
127 80 170 0 1
128 64 0 240 0
129 113 0 250 1
130 112 0 230 0
131 138 170 170 0
132 84 0 160 1
133 6 0 0 0
134 292 0 140 0
135 48 0 240 0
136 107 0 200 0
137 240 0 0 1
138 2 200 0 1
139 16 110 170 0
140 80 0 0 1
141 73 0 0 0
142 113 240 250 0
143 268 190 200 1
144 175 0 0 0
145 239 0 0 1
146 167 0 210 1
147 38 160 160 1
148 90 240 230 0
149 259 0 240 1
150 195 0 0 0
151 97 0 0 1
152 121 130 130 0
153 49 0 0 1
154 138 150 0 1
155 261 0 0 0
156 84 0 0 0
157 55 210 200 1
158 240 0 220 0
159 177 180 180 0
160 86 230 230 0
161 261 210 0 0
162 280 0 0 0
163 116 230 0 1
164 13 240 240 0
165 87 0 310 1
166 112 220 230 1
167 259 0 0 1
168 236 240 0 1
169 44 0 260 1
170 45 0 0 1
171 200 0 0 0
172 13 0 240 0
173 13 0 0 0
174 122 230 210 1
175 239 0 150 0
176 177 0 180 1
177 193 0 0 1
178 14 230 0 1
179 79 0 140 1
180 121 130 0 1
181 49 240 0 0
182 16 190 0 1
183 177 180 0 0
184 97 0 70 0
185 117 0 240 1
186 14 120 90 0
187 204 0 200 1
188 123 240 0 0
189 116 0 220 1
190 236 0 190 0
191 112 170 0 0
192 195 0 240 1
193 16 210 190 0
194 268 0 0 0
195 177 310 0 1
196 121 260 250 1
197 117 210 0 1
198 107 100 0 1
199 117 0 0 0
200 38 0 150 1
201 16 0 190 1
202 97 210 0 0
203 193 190 190 0
204 6 240 0 0
205 64 240 240 1
206 100 200 190 0
207 44 120 0 1
208 151 0 0 0
209 90 0 0 0
210 123 0 0 1
211 55 0 0 0
212 121 0 130 1
212 294 10761 10.6972